SCIP version 5.0.0 [precision: 8 byte] [memory: block] [mode: optimized] [LP solver: NONE] [GitHash: 3bbd232]
Copyright (C) 2002-2017 Konrad-Zuse-Zentrum fuer Informationstechnik Berlin (ZIB)

External codes: 
  Readline EditLine w  GNU library for command line editing (gnu.org/s/readline)
  CppAD 20160000.1     Algorithmic Differentiation of C++ algorithms developed by B. Bell (www.coin-or.org/CppAD)
  ZLIB 1.2.5           General purpose compression library by J. Gailly and M. Adler (zlib.net)
  GMP 6.1.2            GNU Multiple Precision Arithmetic Library developed by T. Granlund (gmplib.org)

user parameter file <scip.set> not found - using default parameters

read problem <../../Split_data/output/biodeg/0/1_sample_biodeg.logreg>
============

File name	:	../../Split_data/output/biodeg/0/1_sample_biodeg.logreg
Problem name 	:	1_sample_biodeg
Number of data	:	844
Number of var	:	41
The given data has linear independence

[dim=1] time: 0.034112
[dim=2] time: 0.063343
[dim=3] time: 0.096745
[dim=4] time: 0.130209
[dim=5] time: 0.161289
[dim=6] time: 0.189466
[dim=7] time: 0.217213
[dim=8] time: 0.236156
[dim=9] time: 0.255824
[dim=10] time: 0.277894
[dim=11] time: 0.297846
[dim=12] time: 0.316934
[dim=13] time: 0.336792
[dim=14] time: 0.356591
[dim=15] time: 0.3761
[dim=16] time: 0.394945
[dim=17] time: 0.414742
[dim=18] time: 0.433763
[dim=19] time: 0.452523
[dim=20] time: 0.470462
[dim=21] time: 0.488097
[dim=22] time: 0.506605
[dim=23] time: 0.523635
[dim=24] time: 0.53869
[dim=25] Time of forward = 0.552504sec.
AIC: 544.256
k: 24

[dim=41] time: 0.153383
[dim=40] time: 0.220087
[dim=39] time: 0.267847
[dim=38] time: 0.331593
[dim=37] time: 0.383558
[dim=36] time: 0.445903
[dim=35] time: 0.496297
[dim=34] time: 0.53786
[dim=33] time: 0.580211
[dim=32] time: 0.620698
[dim=31] time: 0.659872
[dim=30] time: 0.694764
[dim=29] time: 0.728731
[dim=28] time: 0.761568
[dim=27] time: 0.793382
[dim=26] time: 0.820679
[dim=25] time: 0.844873
[dim=24] time: 0.870081
[dim=23] Time of backward = 0.895315sec.
AIC: 545.755
k: 24
